n = 7;
colSum=[2,3,6,3,2,1,3];
rowSum=[4,1,3,3,3,3,3];
groups=[|1,2,3,3,3,3,4|1,2,3,4,4,3,4|1,2,5,4,4,3,4|2,2,5,4,4,4,4|2,2,5,4,6,6,6|2,2,2,2,6,6,6|2,7,7,2,2,6,6|];
rowN = 7;
colN = 7;
pair=[|0,1,0,0,0,0,0|0,0,1,0,1,1,1|0,0,0,1,1,0,0|0,1,1,0,0,1,0|0,1,0,1,0,0,0|0,1,0,0,0,0,0|0,1,0,0,0,0,0|];
